<number of tasks>
20

<cycle time>
1000

<order strength>
0,5


<task times>
1 246
2 489
3 212
4 66
5 221
6 328
7 67
8 52
9 101
10 214
11 202
12 86
13 334
14 293
15 498
16 195
17 291
18 141
19 137
20 66

<precedence relations>
1,5
1,17
1,19
2,8
3,5
3,7
4,6
5,18
6,9
6,10
7,18
8,10
9,11
9,12
9,13
9,14
10,11
10,12
10,13
11,15
11,16
11,17
12,15
13,15
13,16
13,17
14,16
15,20
16,19
17,18
17,20

<end>
